(set-logic SLIA)
(constraint (= (f "General Electric") "General Electric"))
(constraint (= (f "General Electric Inc") "General Electric"))
(constraint (= (f "General Electric Company") "General Electric"))
(constraint (= (f "Microsoft") "Microsoft"))
(constraint (= (f "Microsoft Corporation") "Microsoft"))
(constraint (= (f "Nintendo") "Nintendo"))
(constraint (= (f "Nintendo Enterprises") "Nintendo"))
(check-synth)
(synth-fun f ((_arg_0 String)) String ((Start String (ntString)) (ntString String ((Str A) (str.++ ntString A))) (A String ((Str ConstString) (SubStr X P P))) (P Int ((Int ntInt) (Pos X Pattern ntInt Direction))) (Pattern String ((Str ConstString) "ProperCase" "CAPS" "lowercase" "Digits" "Alphabets" "Alphanumeric" "WhiteSpace" "ProperCaseWSpaces" "CAPSWSpaces" "lowercaseSpaces" "AlphabetsWSpaces")) (X String (_arg_0)) (ConstString String (_arg_0 "" " " "Inc" "Company" "Corporation" "Enterprises")) (Direction Int (0 1)) (ntInt Int (-5 -4 -3 -2 -1 0 1 2 3 4 5))))
